c defined variables: 32 33 34 35 36 37 38 39 40 41 42 43 44 45 46 47 48 49 50 51 52 53 54 55 56 57 58 59 60 61 62 65 66 67 69 70 71 72 73 76 77 78 79 82 83 84 87 88 89 90 91 95 96 97 98 99 100 101 104 105 106 107 108 113 114 115 116 117 118 119 120 121 122 123 124 125 126 127 128 129 130 131 132 135 136 137 138 139 145 146 147 148 149 150 151 152 153 154 155 156 157 158 159 160 161 162 163 164 165 166 167 168 169 170 171 172 173 174 175 178 179 180 181 182 183 184 185 186 187 188 189 190 191 192 193 194 195 196 197 198 199 200 201 202 203 204 205 206 207 208 209 210 211 212 213 214 215 216 217 218 219 220 221 222 223 224 225 226 227 228 229 230 231 232 233 234 235 236 237 238 239 240 241 242 243 244 245 246 247 248 
p cnf 1085 1582
a 7 8 9 10 11 12 14 15 16 17 18 19 20 21 22 23 24 25 26 27 28 29 0
e 63 64 68 74 75 80 81 85 86 92 93 94 102 103 109 110 111 112 133 134 140 141 142 143 144 176 177 32 33 34 35 36 37 38 39 40 41 42 43 44 45 46 47 48 49 50 51 52 53 54 55 56 57 58 59 60 61 62 65 66 67 69 70 71 72 73 76 77 78 79 82 83 84 87 88 89 90 91 95 96 97 98 99 100 101 104 105 106 107 108 113 114 115 116 117 118 119 120 121 122 123 124 125 126 127 128 129 130 131 132 135 136 137 138 139 145 146 147 148 149 150 151 152 153 154 155 156 157 158 159 160 161 162 163 164 165 166 167 168 169 170 171 172 173 174 175 178 179 180 181 182 183 184 185 186 187 188 189 190 191 192 193 194 195 196 197 198 199 200 201 202 203 204 205 206 207 208 209 210 211 212 213 214 215 216 217 218 219 220 221 222 223 224 225 226 227 228 229 230 231 232 233 234 235 236 237 238 239 240 241 242 243 244 245 246 247 248 902 903 904 905 906 907 908 909 910 911 912 913 914 915 916 917 918 919 920 921 922 923 924 925 926 927 928 929 930 931 932 933 934 935 936 937 938 939 940 941 942 943 944 945 946 947 948 949 950 951 952 953 954 955 956 957 958 959 960 961 962 963 964 965 966 967 968 969 970 971 972 973 974 975 976 977 978 979 980 981 982 983 984 985 986 987 988 989 990 991 992 993 994 995 996 997 998 999 1000 1001 1002 1003 1004 1005 1006 1007 1008 1009 1010 1011 1012 1013 1014 1015 1016 1017 1018 1019 1020 1021 1022 1023 1024 1025 1026 1027 1028 1029 1030 1031 1032 1033 1034 1035 1036 1037 1038 1039 1040 1041 1042 1043 1044 1045 1046 1047 1048 1049 1050 1051 1052 1053 1054 1055 1056 1057 1058 1059 1060 1061 1062 1063 1064 1065 1066 1067 1068 1069 1070 1071 1072 1073 1074 1075 1076 1077 1078 1079 1080 1081 1082 1083 1084 1085 0
d 1 7 8 9 10 11 12 14 15 16 17 18 19 20 21 0
d 2 7 8 9 10 11 12 14 15 16 17 18 19 20 21 0
d 3 7 8 9 10 11 12 14 15 16 17 18 19 20 21 0
d 4 7 8 9 10 11 12 14 15 16 17 18 19 20 21 0
d 5 7 8 9 10 11 12 14 15 16 17 18 19 20 21 0
d 6 7 8 9 10 11 12 14 15 16 17 18 19 20 21 0
d 13 7 8 9 10 11 12 14 15 16 17 18 19 20 21 0
d 30 14 15 16 17 18 19 20 21 0
d 31 22 23 24 25 26 27 28 29 0
903 -32 0
-903 32 0
904 -33 0
-904 33 0
905 -34 0
-905 34 0
906 -35 0
-906 35 0
907 -36 0
-907 36 0
908 -37 0
-908 37 0
909 -38 0
-909 38 0
910 -39 0
-910 39 0
911 -40 0
-911 40 0
912 -41 0
-912 41 0
913 -42 0
-913 42 0
914 -43 0
-914 43 0
915 -44 0
-915 44 0
916 -45 0
-916 45 0
917 -46 0
-917 46 0
918 -47 0
-918 47 0
919 -48 0
-919 48 0
920 -49 0
-920 49 0
921 -50 0
-921 50 0
922 -51 0
-922 51 0
923 -52 0
-923 52 0
924 -53 0
-924 53 0
925 -54 0
-925 54 0
926 -55 0
-926 55 0
927 -56 0
-927 56 0
928 -57 0
-928 57 0
929 -58 0
-929 58 0
930 -59 0
-930 59 0
931 -60 0
-931 60 0
932 -61 0
-932 61 0
933 -62 0
-933 62 0
934 -65 0
-934 65 0
-902 -66 0
902 66 0
935 -67 0
-935 67 0
936 -69 0
-936 69 0
937 -70 0
-937 70 0
938 -71 0
-938 71 0
939 -72 0
-939 72 0
940 -73 0
-940 73 0
941 -76 0
-941 76 0
942 -77 0
-942 77 0
943 -78 0
-943 78 0
944 -79 0
-944 79 0
945 -82 0
-945 82 0
946 -83 0
-946 83 0
-947 -84 0
947 84 0
948 -87 0
-948 87 0
949 -88 0
-949 88 0
950 -89 0
-950 89 0
951 -90 0
-951 90 0
952 -91 0
-952 91 0
953 -95 0
-953 95 0
954 -96 0
-954 96 0
955 -97 0
-955 97 0
956 -98 0
-956 98 0
957 -99 0
-957 99 0
958 -100 0
-958 100 0
-959 -101 0
959 101 0
960 -104 0
-960 104 0
961 -105 0
-961 105 0
962 -106 0
-962 106 0
963 -107 0
-963 107 0
964 -108 0
-964 108 0
965 -113 0
-965 113 0
966 -114 0
-966 114 0
967 -115 0
-967 115 0
968 -116 0
-968 116 0
969 -117 0
-969 117 0
970 -118 0
-970 118 0
971 -119 0
-971 119 0
972 -120 0
-972 120 0
973 -121 0
-973 121 0
974 -122 0
-974 122 0
975 -123 0
-975 123 0
976 -124 0
-976 124 0
977 -125 0
-977 125 0
978 -126 0
-978 126 0
979 -127 0
-979 127 0
-980 -128 0
980 128 0
981 -129 0
-981 129 0
982 -130 0
-982 130 0
983 -131 0
-983 131 0
-984 -132 0
984 132 0
985 -135 0
-985 135 0
986 -136 0
-986 136 0
987 -137 0
-987 137 0
988 -138 0
-988 138 0
989 -139 0
-989 139 0
990 -145 0
-990 145 0
991 -146 0
-991 146 0
992 -147 0
-992 147 0
993 -148 0
-993 148 0
994 -149 0
-994 149 0
995 -150 0
-995 150 0
-996 -151 0
996 151 0
997 -152 0
-997 152 0
998 -153 0
-998 153 0
999 -154 0
-999 154 0
1000 -155 0
-1000 155 0
1001 -156 0
-1001 156 0
1002 -157 0
-1002 157 0
1003 -158 0
-1003 158 0
1004 -159 0
-1004 159 0
1005 -160 0
-1005 160 0
1006 -161 0
-1006 161 0
-1007 -162 0
1007 162 0
1008 -163 0
-1008 163 0
1009 -164 0
-1009 164 0
1010 -165 0
-1010 165 0
1011 -166 0
-1011 166 0
1012 -167 0
-1012 167 0
1013 -168 0
-1013 168 0
1014 -169 0
-1014 169 0
1015 -170 0
-1015 170 0
-1016 -171 0
1016 171 0
1017 -172 0
-1017 172 0
1018 -173 0
-1018 173 0
1019 -174 0
-1019 174 0
1020 -175 0
-1020 175 0
1021 -178 0
-1021 178 0
1022 -179 0
-1022 179 0
1023 -180 0
-1023 180 0
1024 -181 0
-1024 181 0
1025 -182 0
-1025 182 0
1026 -183 0
-1026 183 0
1027 -184 0
-1027 184 0
-1028 -185 0
1028 185 0
1029 -186 0
-1029 186 0
1030 -187 0
-1030 187 0
1031 -188 0
-1031 188 0
1032 -189 0
-1032 189 0
1033 -190 0
-1033 190 0
1034 -191 0
-1034 191 0
-1035 -192 0
1035 192 0
1036 -193 0
-1036 193 0
1037 -194 0
-1037 194 0
1038 -195 0
-1038 195 0
1039 -196 0
-1039 196 0
1040 -197 0
-1040 197 0
1041 -198 0
-1041 198 0
1042 -199 0
-1042 199 0
1043 -200 0
-1043 200 0
-1044 -201 0
1044 201 0
1045 -202 0
-1045 202 0
1046 -203 0
-1046 203 0
1047 -204 0
-1047 204 0
1048 -205 0
-1048 205 0
1049 -206 0
-1049 206 0
1050 -207 0
-1050 207 0
-1051 -208 0
1051 208 0
1052 -209 0
-1052 209 0
1053 -210 0
-1053 210 0
1054 -211 0
-1054 211 0
1055 -212 0
-1055 212 0
1056 -213 0
-1056 213 0
1057 -214 0
-1057 214 0
1058 -215 0
-1058 215 0
-1059 -216 0
1059 216 0
1060 -217 0
-1060 217 0
1061 -218 0
-1061 218 0
1062 -219 0
-1062 219 0
1063 -220 0
-1063 220 0
1064 -221 0
-1064 221 0
1065 -222 0
-1065 222 0
1066 -223 0
-1066 223 0
1067 -224 0
-1067 224 0
1068 -225 0
-1068 225 0
1069 -226 0
-1069 226 0
1070 -227 0
-1070 227 0
1071 -228 0
-1071 228 0
1072 -229 0
-1072 229 0
-902 -230 0
902 230 0
1073 -231 0
-1073 231 0
1074 -232 0
-1074 232 0
1075 -233 0
-1075 233 0
1076 -234 0
-1076 234 0
1077 -235 0
-1077 235 0
1078 -236 0
-1078 236 0
-902 -237 0
902 237 0
1079 -238 0
-1079 238 0
1080 -239 0
-1080 239 0
1081 -240 0
-1081 240 0
1082 -241 0
-1082 241 0
1083 -242 0
-1083 242 0
1084 -243 0
-1084 243 0
1085 -244 0
-1085 244 0
-902 -245 0
902 245 0
902 -246 0
-902 246 0
902 -247 0
-902 247 0
902 -248 0
-902 248 0
-32 -22 0
-32 14 0
32 22 -14 0
-33 22 0
-33 -14 0
33 -22 14 0
-34 -32 0
-34 -33 0
34 32 33 0
-35 -23 0
-35 15 0
35 23 -15 0
-36 23 0
-36 -15 0
36 -23 15 0
-37 -35 0
-37 -36 0
37 35 36 0
-38 34 0
-38 37 0
38 -34 -37 0
-39 -24 0
-39 16 0
39 24 -16 0
-40 24 0
-40 -16 0
40 -24 16 0
-41 -39 0
-41 -40 0
41 39 40 0
-42 -25 0
-42 17 0
42 25 -17 0
-43 25 0
-43 -17 0
43 -25 17 0
-44 -42 0
-44 -43 0
44 42 43 0
-45 41 0
-45 44 0
45 -41 -44 0
-46 38 0
-46 45 0
46 -38 -45 0
-47 -26 0
-47 18 0
47 26 -18 0
-48 26 0
-48 -18 0
48 -26 18 0
-49 -47 0
-49 -48 0
49 47 48 0
-50 -27 0
-50 19 0
50 27 -19 0
-51 27 0
-51 -19 0
51 -27 19 0
-52 -50 0
-52 -51 0
52 50 51 0
-53 49 0
-53 52 0
53 -49 -52 0
-54 -28 0
-54 20 0
54 28 -20 0
-55 28 0
-55 -20 0
55 -28 20 0
-56 -54 0
-56 -55 0
56 54 55 0
-57 -29 0
-57 21 0
57 29 -21 0
-58 29 0
-58 -21 0
58 -29 21 0
-59 -57 0
-59 -58 0
59 57 58 0
-60 56 0
-60 59 0
60 -56 -59 0
-61 53 0
-61 60 0
61 -53 -60 0
-62 46 0
-62 61 0
62 -46 -61 0
-63 31 0
-63 -30 0
63 -31 30 0
-64 -31 0
-64 30 0
64 31 -30 0
-65 -63 0
-65 -64 0
65 63 64 0
-66 62 0
-66 -65 0
66 -62 65 0
-67 15 0
-67 14 0
67 -15 -14 0
-68 -13 0
-68 -67 0
68 13 67 0
-69 -23 0
-69 -68 0
69 23 68 0
-70 23 0
-70 68 0
70 -23 -68 0
-71 -69 0
-71 -70 0
71 69 70 0
-72 22 0
-72 71 0
72 -22 -71 0
-73 16 0
-73 14 0
73 -16 -14 0
-74 -7 0
-74 -6 0
74 7 6 0
75 1 0
75 -74 0
-75 -1 74 0
-76 8 0
-76 75 0
76 -8 -75 0
-77 -8 0
-77 -75 0
77 8 75 0
-78 -76 0
-78 -77 0
78 76 77 0
-79 -7 0
-79 78 0
79 7 -78 0
-80 7 0
-80 2 0
80 -7 -2 0
-81 8 0
-81 1 0
81 -8 -1 0
-82 80 0
-82 81 0
82 -80 -81 0
-83 -80 0
-83 -81 0
83 80 81 0
84 -82 0
84 -83 0
-84 82 83 0
-85 -6 0
-85 -84 0
85 6 84 0
-86 6 0
-86 2 0
86 -6 -2 0
-87 -85 0
-87 -86 0
87 85 86 0
-88 9 0
-88 87 0
88 -9 -87 0
-89 -9 0
-89 -87 0
89 9 87 0
-90 -88 0
-90 -89 0
90 88 89 0
-91 79 0
-91 90 0
91 -79 -90 0
-92 7 0
-92 3 0
92 -7 -3 0
-93 9 0
-93 1 0
93 -9 -1 0
-94 8 0
-94 2 0
94 -8 -2 0
-95 94 0
-95 -82 0
95 -94 82 0
-96 -93 0
-96 95 0
96 93 -95 0
-97 93 0
-97 -95 0
97 -93 95 0
-98 -96 0
-98 -97 0
98 96 97 0
-99 92 0
-99 -98 0
99 -92 98 0
-100 -92 0
-100 98 0
100 92 -98 0
101 -99 0
101 -100 0
-101 99 100 0
-102 -6 0
-102 -101 0
102 6 101 0
-103 6 0
-103 3 0
103 -6 -3 0
-104 -102 0
-104 -103 0
104 102 103 0
-105 10 0
-105 104 0
105 -10 -104 0
-106 -10 0
-106 -104 0
106 10 104 0
-107 -105 0
-107 -106 0
107 105 106 0
-108 91 0
-108 107 0
108 -91 -107 0
-109 7 0
-109 4 0
109 -7 -4 0
-110 8 0
-110 3 0
110 -8 -3 0
-111 9 0
-111 2 0
111 -9 -2 0
-112 10 0
-112 1 0
112 -10 -1 0
-113 94 0
-113 93 0
113 -94 -93 0
-114 -113 0
-114 -82 0
114 113 82 0
-115 112 0
-115 -114 0
115 -112 114 0
-116 -112 0
-116 114 0
116 112 -114 0
-117 -115 0
-117 -116 0
117 115 116 0
-118 -111 0
-118 117 0
118 111 -117 0
-119 111 0
-119 -117 0
119 -111 117 0
-120 -118 0
-120 -119 0
120 118 119 0
-121 110 0
-121 -120 0
121 -110 120 0
-122 121 0
-122 99 0
122 -121 -99 0
-123 110 0
-123 99 0
123 -110 -99 0
-124 -110 0
-124 -99 0
124 110 99 0
-125 120 0
-125 124 0
125 -120 -124 0
-126 -120 0
-126 -124 0
126 120 124 0
-127 -125 0
-127 -126 0
127 125 126 0
128 -123 0
128 127 0
-128 123 -127 0
-129 -122 0
-129 128 0
129 122 -128 0
-130 109 0
-130 -129 0
130 -109 129 0
-131 -109 0
-131 129 0
131 109 -129 0
132 -130 0
132 -131 0
-132 130 131 0
-133 -6 0
-133 -132 0
133 6 132 0
-134 6 0
-134 4 0
134 -6 -4 0
-135 -133 0
-135 -134 0
135 133 134 0
-136 11 0
-136 135 0
136 -11 -135 0
-137 -11 0
-137 -135 0
137 11 135 0
-138 -136 0
-138 -137 0
138 136 137 0
-139 108 0
-139 138 0
139 -108 -138 0
-140 7 0
-140 5 0
140 -7 -5 0
-141 8 0
-141 4 0
141 -8 -4 0
-142 9 0
-142 3 0
142 -9 -3 0
-143 11 0
-143 1 0
143 -11 -1 0
-144 10 0
-144 2 0
144 -10 -2 0
-145 111 0
-145 112 0
145 -111 -112 0
-146 -113 0
-146 -115 0
146 113 115 0
-147 -145 0
-147 146 0
147 145 -146 0
-148 -144 0
-148 147 0
148 144 -147 0
-149 144 0
-149 -147 0
149 -144 147 0
-150 -148 0
-150 -149 0
150 148 149 0
151 -143 0
151 150 0
-151 143 -150 0
-152 143 0
-152 -150 0
152 -143 150 0
-153 151 0
-153 -152 0
153 -151 152 0
-154 142 0
-154 -153 0
154 -142 153 0
-155 -123 0
-155 -126 0
155 123 126 0
-156 154 0
-156 -155 0
156 -154 155 0
-157 142 0
-157 -155 0
157 -142 155 0
-158 -142 0
-158 155 0
158 142 -155 0
-159 153 0
-159 158 0
159 -153 -158 0
-160 -153 0
-160 -158 0
160 153 158 0
-161 -159 0
-161 -160 0
161 159 160 0
162 -157 0
162 161 0
-162 157 -161 0
-163 -156 0
-163 162 0
163 156 -162 0
-164 141 0
-164 -163 0
164 -141 163 0
-165 164 0
-165 130 0
165 -164 -130 0
-166 141 0
-166 130 0
166 -141 -130 0
-167 -141 0
-167 -130 0
167 141 130 0
-168 163 0
-168 167 0
168 -163 -167 0
-169 -163 0
-169 -167 0
169 163 167 0
-170 -168 0
-170 -169 0
170 168 169 0
171 -166 0
171 170 0
-171 166 -170 0
-172 -165 0
-172 171 0
172 165 -171 0
-173 -140 0
-173 -172 0
173 140 172 0
-174 140 0
-174 172 0
174 -140 -172 0
-175 -173 0
-175 -174 0
175 173 174 0
-176 -6 0
-176 -175 0
176 6 175 0
-177 6 0
-177 5 0
177 -6 -5 0
-178 -176 0
-178 -177 0
178 176 177 0
-179 12 0
-179 178 0
179 -12 -178 0
-180 -12 0
-180 -178 0
180 12 178 0
-181 -179 0
-181 -180 0
181 179 180 0
-182 139 0
-182 181 0
182 -139 -181 0
-183 73 0
-183 -182 0
183 -73 182 0
-184 -73 0
-184 182 0
184 73 -182 0
185 -183 0
185 -184 0
-185 183 184 0
-186 -24 0
-186 -185 0
186 24 185 0
-187 24 0
-187 185 0
187 -24 -185 0
-188 -186 0
-188 -187 0
188 186 187 0
-189 17 0
-189 14 0
189 -17 -14 0
-190 189 0
-190 183 0
190 -189 -183 0
-191 -189 0
-191 -183 0
191 189 183 0
192 -190 0
192 -191 0
-192 190 191 0
-193 -25 0
-193 -192 0
193 25 192 0
-194 25 0
-194 192 0
194 -25 -192 0
-195 -193 0
-195 -194 0
195 193 194 0
-196 188 0
-196 195 0
196 -188 -195 0
-197 72 0
-197 196 0
197 -72 -196 0
-198 18 0
-198 14 0
198 -18 -14 0
-199 198 0
-199 190 0
199 -198 -190 0
-200 -198 0
-200 -190 0
200 198 190 0
201 -199 0
201 -200 0
-201 199 200 0
-202 -26 0
-202 -201 0
202 26 201 0
-203 26 0
-203 201 0
203 -26 -201 0
-204 -202 0
-204 -203 0
204 202 203 0
-205 19 0
-205 14 0
205 -19 -14 0
-206 205 0
-206 199 0
206 -205 -199 0
-207 -205 0
-207 -199 0
207 205 199 0
208 -206 0
208 -207 0
-208 206 207 0
-209 -27 0
-209 -208 0
209 27 208 0
-210 27 0
-210 208 0
210 -27 -208 0
-211 -209 0
-211 -210 0
211 209 210 0
-212 204 0
-212 211 0
212 -204 -211 0
-213 20 0
-213 14 0
213 -20 -14 0
-214 213 0
-214 206 0
214 -213 -206 0
-215 -213 0
-215 -206 0
215 213 206 0
216 -214 0
216 -215 0
-216 214 215 0
-217 -28 0
-217 -216 0
217 28 216 0
-218 28 0
-218 216 0
218 -28 -216 0
-219 -217 0
-219 -218 0
219 217 218 0
-220 21 0
-220 14 0
220 -21 -14 0
-221 220 0
-221 -214 0
221 -220 214 0
-222 -220 0
-222 214 0
222 220 -214 0
-223 -221 0
-223 -222 0
223 221 222 0
-224 -29 0
-224 -223 0
224 29 223 0
-225 29 0
-225 223 0
225 -29 -223 0
-226 -224 0
-226 -225 0
226 224 225 0
-227 219 0
-227 226 0
227 -219 -226 0
-228 212 0
-228 227 0
228 -212 -227 0
-229 197 0
-229 228 0
229 -197 -228 0
-230 229 0
-230 64 0
230 -229 -64 0
-231 16 0
-231 189 0
231 -16 -189 0
-232 231 0
-232 198 0
232 -231 -198 0
-233 232 0
-233 205 0
233 -232 -205 0
-234 233 0
-234 213 0
234 -233 -213 0
-235 234 0
-235 220 0
235 -234 -220 0
-236 235 0
-236 67 0
236 -235 -67 0
-237 30 0
-237 236 0
237 -30 -236 0
-238 -15 0
-238 -14 0
238 15 14 0
-239 -17 0
-239 -16 0
239 17 16 0
-240 238 0
-240 239 0
240 -238 -239 0
-241 -19 0
-241 -18 0
241 19 18 0
-242 -21 0
-242 -20 0
242 21 20 0
-243 241 0
-243 242 0
243 -241 -242 0
-244 240 0
-244 243 0
244 -240 -243 0
-245 -30 0
-245 244 0
245 30 -244 0
-246 -237 0
-246 -245 0
246 237 245 0
-247 -230 0
-247 246 0
247 230 -246 0
-248 -66 0
-248 247 0
248 66 -247 0
248 0
902 0
14 -903 0
-22 -903 0
-14 22 903 0
-14 -904 0
22 -904 0
14 -22 904 0
-32 -905 0
-33 -905 0
32 33 905 0
15 -906 0
-23 -906 0
-15 23 906 0
-15 -907 0
23 -907 0
15 -23 907 0
-35 -908 0
-36 -908 0
35 36 908 0
34 -909 0
37 -909 0
-34 -37 909 0
16 -910 0
-24 -910 0
-16 24 910 0
-16 -911 0
24 -911 0
16 -24 911 0
-39 -912 0
-40 -912 0
39 40 912 0
17 -913 0
-25 -913 0
-17 25 913 0
-17 -914 0
25 -914 0
17 -25 914 0
-42 -915 0
-43 -915 0
42 43 915 0
41 -916 0
44 -916 0
-41 -44 916 0
38 -917 0
45 -917 0
-38 -45 917 0
18 -918 0
-26 -918 0
-18 26 918 0
-18 -919 0
26 -919 0
18 -26 919 0
-47 -920 0
-48 -920 0
47 48 920 0
19 -921 0
-27 -921 0
-19 27 921 0
-19 -922 0
27 -922 0
19 -27 922 0
-50 -923 0
-51 -923 0
50 51 923 0
49 -924 0
52 -924 0
-49 -52 924 0
20 -925 0
-28 -925 0
-20 28 925 0
-20 -926 0
28 -926 0
20 -28 926 0
-54 -927 0
-55 -927 0
54 55 927 0
21 -928 0
-29 -928 0
-21 29 928 0
-21 -929 0
29 -929 0
21 -29 929 0
-57 -930 0
-58 -930 0
57 58 930 0
56 -931 0
59 -931 0
-56 -59 931 0
53 -932 0
60 -932 0
-53 -60 932 0
46 -933 0
61 -933 0
-46 -61 933 0
-63 -934 0
-64 -934 0
63 64 934 0
14 -935 0
15 -935 0
-14 -15 935 0
-23 -936 0
-68 -936 0
23 68 936 0
23 -937 0
68 -937 0
-23 -68 937 0
-69 -938 0
-70 -938 0
69 70 938 0
22 -939 0
71 -939 0
-22 -71 939 0
14 -940 0
16 -940 0
-14 -16 940 0
8 -941 0
75 -941 0
-8 -75 941 0
-8 -942 0
-75 -942 0
8 75 942 0
-76 -943 0
-77 -943 0
76 77 943 0
-7 -944 0
78 -944 0
7 -78 944 0
80 -945 0
81 -945 0
-80 -81 945 0
-80 -946 0
-81 -946 0
80 81 946 0
-82 -947 0
-83 -947 0
82 83 947 0
-85 -948 0
-86 -948 0
85 86 948 0
9 -949 0
87 -949 0
-9 -87 949 0
-9 -950 0
-87 -950 0
9 87 950 0
-88 -951 0
-89 -951 0
88 89 951 0
79 -952 0
90 -952 0
-79 -90 952 0
-82 -953 0
94 -953 0
82 -94 953 0
-93 -954 0
95 -954 0
93 -95 954 0
93 -955 0
-95 -955 0
-93 95 955 0
-96 -956 0
-97 -956 0
96 97 956 0
92 -957 0
-98 -957 0
-92 98 957 0
-92 -958 0
98 -958 0
92 -98 958 0
-99 -959 0
-100 -959 0
99 100 959 0
-102 -960 0
-103 -960 0
102 103 960 0
10 -961 0
104 -961 0
-10 -104 961 0
-10 -962 0
-104 -962 0
10 104 962 0
-105 -963 0
-106 -963 0
105 106 963 0
91 -964 0
107 -964 0
-91 -107 964 0
93 -965 0
94 -965 0
-93 -94 965 0
-82 -966 0
-113 -966 0
82 113 966 0
112 -967 0
-114 -967 0
-112 114 967 0
-112 -968 0
114 -968 0
112 -114 968 0
-115 -969 0
-116 -969 0
115 116 969 0
-111 -970 0
117 -970 0
111 -117 970 0
111 -971 0
-117 -971 0
-111 117 971 0
-118 -972 0
-119 -972 0
118 119 972 0
110 -973 0
-120 -973 0
-110 120 973 0
99 -974 0
121 -974 0
-99 -121 974 0
99 -975 0
110 -975 0
-99 -110 975 0
-99 -976 0
-110 -976 0
99 110 976 0
120 -977 0
124 -977 0
-120 -124 977 0
-120 -978 0
-124 -978 0
120 124 978 0
-125 -979 0
-126 -979 0
125 126 979 0
-123 -980 0
127 -980 0
123 -127 980 0
-122 -981 0
128 -981 0
122 -128 981 0
109 -982 0
-129 -982 0
-109 129 982 0
-109 -983 0
129 -983 0
109 -129 983 0
-130 -984 0
-131 -984 0
130 131 984 0
-133 -985 0
-134 -985 0
133 134 985 0
11 -986 0
135 -986 0
-11 -135 986 0
-11 -987 0
-135 -987 0
11 135 987 0
-136 -988 0
-137 -988 0
136 137 988 0
108 -989 0
138 -989 0
-108 -138 989 0
111 -990 0
112 -990 0
-111 -112 990 0
-113 -991 0
-115 -991 0
113 115 991 0
-145 -992 0
146 -992 0
145 -146 992 0
-144 -993 0
147 -993 0
144 -147 993 0
144 -994 0
-147 -994 0
-144 147 994 0
-148 -995 0
-149 -995 0
148 149 995 0
-143 -996 0
150 -996 0
143 -150 996 0
143 -997 0
-150 -997 0
-143 150 997 0
151 -998 0
-152 -998 0
-151 152 998 0
142 -999 0
-153 -999 0
-142 153 999 0
-123 -1000 0
-126 -1000 0
123 126 1000 0
154 -1001 0
-155 -1001 0
-154 155 1001 0
142 -1002 0
-155 -1002 0
-142 155 1002 0
-142 -1003 0
155 -1003 0
142 -155 1003 0
153 -1004 0
158 -1004 0
-153 -158 1004 0
-153 -1005 0
-158 -1005 0
153 158 1005 0
-159 -1006 0
-160 -1006 0
159 160 1006 0
-157 -1007 0
161 -1007 0
157 -161 1007 0
-156 -1008 0
162 -1008 0
156 -162 1008 0
141 -1009 0
-163 -1009 0
-141 163 1009 0
130 -1010 0
164 -1010 0
-130 -164 1010 0
130 -1011 0
141 -1011 0
-130 -141 1011 0
-130 -1012 0
-141 -1012 0
130 141 1012 0
163 -1013 0
167 -1013 0
-163 -167 1013 0
-163 -1014 0
-167 -1014 0
163 167 1014 0
-168 -1015 0
-169 -1015 0
168 169 1015 0
-166 -1016 0
170 -1016 0
166 -170 1016 0
-165 -1017 0
171 -1017 0
165 -171 1017 0
-140 -1018 0
-172 -1018 0
140 172 1018 0
140 -1019 0
172 -1019 0
-140 -172 1019 0
-173 -1020 0
-174 -1020 0
173 174 1020 0
-176 -1021 0
-177 -1021 0
176 177 1021 0
12 -1022 0
178 -1022 0
-12 -178 1022 0
-12 -1023 0
-178 -1023 0
12 178 1023 0
-179 -1024 0
-180 -1024 0
179 180 1024 0
139 -1025 0
181 -1025 0
-139 -181 1025 0
73 -1026 0
-182 -1026 0
-73 182 1026 0
-73 -1027 0
182 -1027 0
73 -182 1027 0
-183 -1028 0
-184 -1028 0
183 184 1028 0
-24 -1029 0
-185 -1029 0
24 185 1029 0
24 -1030 0
185 -1030 0
-24 -185 1030 0
-186 -1031 0
-187 -1031 0
186 187 1031 0
14 -1032 0
17 -1032 0
-14 -17 1032 0
183 -1033 0
189 -1033 0
-183 -189 1033 0
-183 -1034 0
-189 -1034 0
183 189 1034 0
-190 -1035 0
-191 -1035 0
190 191 1035 0
-25 -1036 0
-192 -1036 0
25 192 1036 0
25 -1037 0
192 -1037 0
-25 -192 1037 0
-193 -1038 0
-194 -1038 0
193 194 1038 0
188 -1039 0
195 -1039 0
-188 -195 1039 0
72 -1040 0
196 -1040 0
-72 -196 1040 0
14 -1041 0
18 -1041 0
-14 -18 1041 0
190 -1042 0
198 -1042 0
-190 -198 1042 0
-190 -1043 0
-198 -1043 0
190 198 1043 0
-199 -1044 0
-200 -1044 0
199 200 1044 0
-26 -1045 0
-201 -1045 0
26 201 1045 0
26 -1046 0
201 -1046 0
-26 -201 1046 0
-202 -1047 0
-203 -1047 0
202 203 1047 0
14 -1048 0
19 -1048 0
-14 -19 1048 0
199 -1049 0
205 -1049 0
-199 -205 1049 0
-199 -1050 0
-205 -1050 0
199 205 1050 0
-206 -1051 0
-207 -1051 0
206 207 1051 0
-27 -1052 0
-208 -1052 0
27 208 1052 0
27 -1053 0
208 -1053 0
-27 -208 1053 0
-209 -1054 0
-210 -1054 0
209 210 1054 0
204 -1055 0
211 -1055 0
-204 -211 1055 0
14 -1056 0
20 -1056 0
-14 -20 1056 0
206 -1057 0
213 -1057 0
-206 -213 1057 0
-206 -1058 0
-213 -1058 0
206 213 1058 0
-214 -1059 0
-215 -1059 0
214 215 1059 0
-28 -1060 0
-216 -1060 0
28 216 1060 0
28 -1061 0
216 -1061 0
-28 -216 1061 0
-217 -1062 0
-218 -1062 0
217 218 1062 0
14 -1063 0
21 -1063 0
-14 -21 1063 0
-214 -1064 0
220 -1064 0
214 -220 1064 0
214 -1065 0
-220 -1065 0
-214 220 1065 0
-221 -1066 0
-222 -1066 0
221 222 1066 0
-29 -1067 0
-223 -1067 0
29 223 1067 0
29 -1068 0
223 -1068 0
-29 -223 1068 0
-224 -1069 0
-225 -1069 0
224 225 1069 0
219 -1070 0
226 -1070 0
-219 -226 1070 0
212 -1071 0
227 -1071 0
-212 -227 1071 0
197 -1072 0
228 -1072 0
-197 -228 1072 0
16 -1073 0
189 -1073 0
-16 -189 1073 0
198 -1074 0
231 -1074 0
-198 -231 1074 0
205 -1075 0
232 -1075 0
-205 -232 1075 0
213 -1076 0
233 -1076 0
-213 -233 1076 0
220 -1077 0
234 -1077 0
-220 -234 1077 0
67 -1078 0
235 -1078 0
-67 -235 1078 0
-14 -1079 0
-15 -1079 0
14 15 1079 0
-16 -1080 0
-17 -1080 0
16 17 1080 0
238 -1081 0
239 -1081 0
-238 -239 1081 0
-18 -1082 0
-19 -1082 0
18 19 1082 0
-20 -1083 0
-21 -1083 0
20 21 1083 0
241 -1084 0
242 -1084 0
-241 -242 1084 0
240 -1085 0
243 -1085 0
-240 -243 1085 0
